\* Problem: Linha2_dia2_reagrupamento *\

Minimize
 instante_maximo: + instante_max

Subject To
 tempo_total(1,0): - 103789.473684 x(0,1) + instante_final(1)
 - instante_final(0) >= -100000
 tempo_total(1,2): - 103789.473684 x(2,1) + instante_final(1)
 - instante_final(2) >= -100000
 tempo_total(1,3): - 103789.473684 x(3,1) + instante_final(1)
 - instante_final(3) >= -100000
 tempo_total(1,4): - 103789.494736632 x(4,1) + instante_final(1)
 - instante_final(4) >= -100000
 tempo_total(1,5): - 103789.494736632 x(5,1) + instante_final(1)
 - instante_final(5) >= -100000
 tempo_total(1,6): - 103789.494736632 x(6,1) + instante_final(1)
 - instante_final(6) >= -100000
 tempo_total(1,7): - 103789.494736632 x(7,1) + instante_final(1)
 - instante_final(7) >= -100000
 tempo_total(1,8): - 103999.9789472 x(8,1) + instante_final(1)
 - instante_final(8) >= -100000
 tempo_total(1,9): - 103999.9789472 x(9,1) + instante_final(1)
 - instante_final(9) >= -100000
 tempo_total(1,10): - 103789.494736632 x(10,1) + instante_final(1)
 - instante_final(10) >= -100000
 tempo_total(1,11): - 103843.58796971 x(11,1) + instante_final(1)
 - instante_final(11) >= -100000
 tempo_total(1,12): - 103843.58796971 x(12,1) + instante_final(1)
 - instante_final(12) >= -100000
 tempo_total(2,0): - 103789.473684 x(0,2) - instante_final(0)
 + instante_final(2) >= -100000
 tempo_total(2,1): - 103789.473684 x(1,2) - instante_final(1)
 + instante_final(2) >= -100000
 tempo_total(2,3): - 103789.473684 x(3,2) + instante_final(2)
 - instante_final(3) >= -100000
 tempo_total(2,4): - 103789.494736632 x(4,2) + instante_final(2)
 - instante_final(4) >= -100000
 tempo_total(2,5): - 103789.494736632 x(5,2) + instante_final(2)
 - instante_final(5) >= -100000
 tempo_total(2,6): - 103789.494736632 x(6,2) + instante_final(2)
 - instante_final(6) >= -100000
 tempo_total(2,7): - 103789.494736632 x(7,2) + instante_final(2)
 - instante_final(7) >= -100000
 tempo_total(2,8): - 103999.9789472 x(8,2) + instante_final(2)
 - instante_final(8) >= -100000
 tempo_total(2,9): - 103999.9789472 x(9,2) + instante_final(2)
 - instante_final(9) >= -100000
 tempo_total(2,10): - 103789.494736632 x(10,2) + instante_final(2)
 - instante_final(10) >= -100000
 tempo_total(2,11): - 103843.58796971 x(11,2) + instante_final(2)
 - instante_final(11) >= -100000
 tempo_total(2,12): - 103843.58796971 x(12,2) + instante_final(2)
 - instante_final(12) >= -100000
 tempo_total(3,0): - 103789.473684 x(0,3) - instante_final(0)
 + instante_final(3) >= -100000
 tempo_total(3,1): - 103789.473684 x(1,3) - instante_final(1)
 + instante_final(3) >= -100000
 tempo_total(3,2): - 103789.473684 x(2,3) - instante_final(2)
 + instante_final(3) >= -100000
 tempo_total(3,4): - 103789.494736632 x(4,3) + instante_final(3)
 - instante_final(4) >= -100000
 tempo_total(3,5): - 103789.494736632 x(5,3) + instante_final(3)
 - instante_final(5) >= -100000
 tempo_total(3,6): - 103789.494736632 x(6,3) + instante_final(3)
 - instante_final(6) >= -100000
 tempo_total(3,7): - 103789.494736632 x(7,3) + instante_final(3)
 - instante_final(7) >= -100000
 tempo_total(3,8): - 103999.9789472 x(8,3) + instante_final(3)
 - instante_final(8) >= -100000
 tempo_total(3,9): - 103999.9789472 x(9,3) + instante_final(3)
 - instante_final(9) >= -100000
 tempo_total(3,10): - 103789.494736632 x(10,3) + instante_final(3)
 - instante_final(10) >= -100000
 tempo_total(3,11): - 103843.58796971 x(11,3) + instante_final(3)
 - instante_final(11) >= -100000
 tempo_total(3,12): - 103843.58796971 x(12,3) + instante_final(3)
 - instante_final(12) >= -100000
 tempo_total(4,0): - 102210.526316 x(0,4) - instante_final(0)
 + instante_final(4) >= -100000
 tempo_total(4,1): - 102210.547368632 x(1,4) - instante_final(1)
 + instante_final(4) >= -100000
 tempo_total(4,2): - 102210.547368632 x(2,4) - instante_final(2)
 + instante_final(4) >= -100000
 tempo_total(4,3): - 102210.547368632 x(3,4) - instante_final(3)
 + instante_final(4) >= -100000
 tempo_total(4,5): - 102210.526316 x(5,4) + instante_final(4)
 - instante_final(5) >= -100000
 tempo_total(4,6): - 102210.526316 x(6,4) + instante_final(4)
 - instante_final(6) >= -100000
 tempo_total(4,7): - 102210.526316 x(7,4) + instante_final(4)
 - instante_final(7) >= -100000
 tempo_total(4,8): - 102421.0526318 x(8,4) + instante_final(4)
 - instante_final(8) >= -100000
 tempo_total(4,9): - 102421.0526318 x(9,4) + instante_final(4)
 - instante_final(9) >= -100000
 tempo_total(4,10): - 102210.526316 x(10,4) + instante_final(4)
 - instante_final(10) >= -100000
 tempo_total(4,11): - 102264.66165435 x(11,4) + instante_final(4)
 - instante_final(11) >= -100000
 tempo_total(4,12): - 102264.66165435 x(12,4) + instante_final(4)
 - instante_final(12) >= -100000
 tempo_total(5,0): - 103789.473684 x(0,5) - instante_final(0)
 + instante_final(5) >= -100000
 tempo_total(5,1): - 103789.494736632 x(1,5) - instante_final(1)
 + instante_final(5) >= -100000
 tempo_total(5,2): - 103789.494736632 x(2,5) - instante_final(2)
 + instante_final(5) >= -100000
 tempo_total(5,3): - 103789.494736632 x(3,5) - instante_final(3)
 + instante_final(5) >= -100000
 tempo_total(5,4): - 103789.473684 x(4,5) - instante_final(4)
 + instante_final(5) >= -100000
 tempo_total(5,6): - 103789.473684 x(6,5) + instante_final(5)
 - instante_final(6) >= -100000
 tempo_total(5,7): - 103789.473684 x(7,5) + instante_final(5)
 - instante_final(7) >= -100000
 tempo_total(5,8): - 103999.9999998 x(8,5) + instante_final(5)
 - instante_final(8) >= -100000
 tempo_total(5,9): - 103999.9999998 x(9,5) + instante_final(5)
 - instante_final(9) >= -100000
 tempo_total(5,10): - 103789.473684 x(10,5) + instante_final(5)
 - instante_final(10) >= -100000
 tempo_total(5,11): - 103843.60902235 x(11,5) + instante_final(5)
 - instante_final(11) >= -100000
 tempo_total(5,12): - 103843.60902235 x(12,5) + instante_final(5)
 - instante_final(12) >= -100000
 tempo_total(6,0): - 103789.473684 x(0,6) - instante_final(0)
 + instante_final(6) >= -100000
 tempo_total(6,1): - 103789.494736632 x(1,6) - instante_final(1)
 + instante_final(6) >= -100000
 tempo_total(6,2): - 103789.494736632 x(2,6) - instante_final(2)
 + instante_final(6) >= -100000
 tempo_total(6,3): - 103789.494736632 x(3,6) - instante_final(3)
 + instante_final(6) >= -100000
 tempo_total(6,4): - 103789.473684 x(4,6) - instante_final(4)
 + instante_final(6) >= -100000
 tempo_total(6,5): - 103789.473684 x(5,6) - instante_final(5)
 + instante_final(6) >= -100000
 tempo_total(6,7): - 103789.473684 x(7,6) + instante_final(6)
 - instante_final(7) >= -100000
 tempo_total(6,8): - 103999.9999998 x(8,6) + instante_final(6)
 - instante_final(8) >= -100000
 tempo_total(6,9): - 103999.9999998 x(9,6) + instante_final(6)
 - instante_final(9) >= -100000
 tempo_total(6,10): - 103789.473684 x(10,6) + instante_final(6)
 - instante_final(10) >= -100000
 tempo_total(6,11): - 103843.60902235 x(11,6) + instante_final(6)
 - instante_final(11) >= -100000
 tempo_total(6,12): - 103843.60902235 x(12,6) + instante_final(6)
 - instante_final(12) >= -100000
 tempo_total(7,0): - 103789.473684 x(0,7) - instante_final(0)
 + instante_final(7) >= -100000
 tempo_total(7,1): - 103789.494736632 x(1,7) - instante_final(1)
 + instante_final(7) >= -100000
 tempo_total(7,2): - 103789.494736632 x(2,7) - instante_final(2)
 + instante_final(7) >= -100000
 tempo_total(7,3): - 103789.494736632 x(3,7) - instante_final(3)
 + instante_final(7) >= -100000
 tempo_total(7,4): - 103789.473684 x(4,7) - instante_final(4)
 + instante_final(7) >= -100000
 tempo_total(7,5): - 103789.473684 x(5,7) - instante_final(5)
 + instante_final(7) >= -100000
 tempo_total(7,6): - 103789.473684 x(6,7) - instante_final(6)
 + instante_final(7) >= -100000
 tempo_total(7,8): - 103999.9999998 x(8,7) + instante_final(7)
 - instante_final(8) >= -100000
 tempo_total(7,9): - 103999.9999998 x(9,7) + instante_final(7)
 - instante_final(9) >= -100000
 tempo_total(7,10): - 103789.473684 x(10,7) + instante_final(7)
 - instante_final(10) >= -100000
 tempo_total(7,11): - 103843.60902235 x(11,7) + instante_final(7)
 - instante_final(11) >= -100000
 tempo_total(7,12): - 103843.60902235 x(12,7) + instante_final(7)
 - instante_final(12) >= -100000
 tempo_total(8,0): - 105052.631579 x(0,8) - instante_final(0)
 + instante_final(8) >= -100000
 tempo_total(8,1): - 105263.1368422 x(1,8) - instante_final(1)
 + instante_final(8) >= -100000
 tempo_total(8,2): - 105263.1368422 x(2,8) - instante_final(2)
 + instante_final(8) >= -100000
 tempo_total(8,3): - 105263.1368422 x(3,8) - instante_final(3)
 + instante_final(8) >= -100000
 tempo_total(8,4): - 105263.1578948 x(4,8) - instante_final(4)
 + instante_final(8) >= -100000
 tempo_total(8,5): - 105263.1578948 x(5,8) - instante_final(5)
 + instante_final(8) >= -100000
 tempo_total(8,6): - 105263.1578948 x(6,8) - instante_final(6)
 + instante_final(8) >= -100000
 tempo_total(8,7): - 105263.1578948 x(7,8) - instante_final(7)
 + instante_final(8) >= -100000
 tempo_total(8,9): - 105052.631579 x(9,8) + instante_final(8)
 - instante_final(9) >= -100000
 tempo_total(8,10): - 105263.1578948 x(10,8) + instante_final(8)
 - instante_final(10) >= -100000
 tempo_total(8,11): - 105209.0225564 x(11,8) + instante_final(8)
 - instante_final(11) >= -100000
 tempo_total(8,12): - 105209.0225564 x(12,8) + instante_final(8)
 - instante_final(12) >= -100000
 tempo_total(9,0): - 105052.631579 x(0,9) - instante_final(0)
 + instante_final(9) >= -100000
 tempo_total(9,1): - 105263.1368422 x(1,9) - instante_final(1)
 + instante_final(9) >= -100000
 tempo_total(9,2): - 105263.1368422 x(2,9) - instante_final(2)
 + instante_final(9) >= -100000
 tempo_total(9,3): - 105263.1368422 x(3,9) - instante_final(3)
 + instante_final(9) >= -100000
 tempo_total(9,4): - 105263.1578948 x(4,9) - instante_final(4)
 + instante_final(9) >= -100000
 tempo_total(9,5): - 105263.1578948 x(5,9) - instante_final(5)
 + instante_final(9) >= -100000
 tempo_total(9,6): - 105263.1578948 x(6,9) - instante_final(6)
 + instante_final(9) >= -100000
 tempo_total(9,7): - 105263.1578948 x(7,9) - instante_final(7)
 + instante_final(9) >= -100000
 tempo_total(9,8): - 105052.631579 x(8,9) - instante_final(8)
 + instante_final(9) >= -100000
 tempo_total(9,10): - 105263.1578948 x(10,9) + instante_final(9)
 - instante_final(10) >= -100000
 tempo_total(9,11): - 105209.0225564 x(11,9) + instante_final(9)
 - instante_final(11) >= -100000
 tempo_total(9,12): - 105209.0225564 x(12,9) + instante_final(9)
 - instante_final(12) >= -100000
 tempo_total(10,0): - 103789.473684 x(0,10) - instante_final(0)
 + instante_final(10) >= -100000
 tempo_total(10,1): - 103789.494736632 x(1,10) - instante_final(1)
 + instante_final(10) >= -100000
 tempo_total(10,2): - 103789.494736632 x(2,10) - instante_final(2)
 + instante_final(10) >= -100000
 tempo_total(10,3): - 103789.494736632 x(3,10) - instante_final(3)
 + instante_final(10) >= -100000
 tempo_total(10,4): - 103789.473684 x(4,10) - instante_final(4)
 + instante_final(10) >= -100000
 tempo_total(10,5): - 103789.473684 x(5,10) - instante_final(5)
 + instante_final(10) >= -100000
 tempo_total(10,6): - 103789.473684 x(6,10) - instante_final(6)
 + instante_final(10) >= -100000
 tempo_total(10,7): - 103789.473684 x(7,10) - instante_final(7)
 + instante_final(10) >= -100000
 tempo_total(10,8): - 103999.9999998 x(8,10) - instante_final(8)
 + instante_final(10) >= -100000
 tempo_total(10,9): - 103999.9999998 x(9,10) - instante_final(9)
 + instante_final(10) >= -100000
 tempo_total(10,11): - 103843.60902235 x(11,10) + instante_final(10)
 - instante_final(11) >= -100000
 tempo_total(10,12): - 103843.60902235 x(12,10) + instante_final(10)
 - instante_final(12) >= -100000
 tempo_total(11,0): - 104114.285714 x(0,11) - instante_final(0)
 + instante_final(11) >= -100000
 tempo_total(11,1): - 104168.39999971 x(1,11) - instante_final(1)
 + instante_final(11) >= -100000
 tempo_total(11,2): - 104168.39999971 x(2,11) - instante_final(2)
 + instante_final(11) >= -100000
 tempo_total(11,3): - 104168.39999971 x(3,11) - instante_final(3)
 + instante_final(11) >= -100000
 tempo_total(11,4): - 104168.42105235 x(4,11) - instante_final(4)
 + instante_final(11) >= -100000
 tempo_total(11,5): - 104168.42105235 x(5,11) - instante_final(5)
 + instante_final(11) >= -100000
 tempo_total(11,6): - 104168.42105235 x(6,11) - instante_final(6)
 + instante_final(11) >= -100000
 tempo_total(11,7): - 104168.42105235 x(7,11) - instante_final(7)
 + instante_final(11) >= -100000
 tempo_total(11,8): - 104270.6766914 x(8,11) - instante_final(8)
 + instante_final(11) >= -100000
 tempo_total(11,9): - 104270.6766914 x(9,11) - instante_final(9)
 + instante_final(11) >= -100000
 tempo_total(11,10): - 104168.42105235 x(10,11) - instante_final(10)
 + instante_final(11) >= -100000
 tempo_total(11,12): - 104114.285714 x(12,11) + instante_final(11)
 - instante_final(12) >= -100000
 tempo_total(12,0): - 104114.285714 x(0,12) - instante_final(0)
 + instante_final(12) >= -100000
 tempo_total(12,1): - 104168.39999971 x(1,12) - instante_final(1)
 + instante_final(12) >= -100000
 tempo_total(12,2): - 104168.39999971 x(2,12) - instante_final(2)
 + instante_final(12) >= -100000
 tempo_total(12,3): - 104168.39999971 x(3,12) - instante_final(3)
 + instante_final(12) >= -100000
 tempo_total(12,4): - 104168.42105235 x(4,12) - instante_final(4)
 + instante_final(12) >= -100000
 tempo_total(12,5): - 104168.42105235 x(5,12) - instante_final(5)
 + instante_final(12) >= -100000
 tempo_total(12,6): - 104168.42105235 x(6,12) - instante_final(6)
 + instante_final(12) >= -100000
 tempo_total(12,7): - 104168.42105235 x(7,12) - instante_final(7)
 + instante_final(12) >= -100000
 tempo_total(12,8): - 104270.6766914 x(8,12) - instante_final(8)
 + instante_final(12) >= -100000
 tempo_total(12,9): - 104270.6766914 x(9,12) - instante_final(9)
 + instante_final(12) >= -100000
 tempo_total(12,10): - 104168.42105235 x(10,12) - instante_final(10)
 + instante_final(12) >= -100000
 tempo_total(12,11): - 104114.285714 x(11,12) - instante_final(11)
 + instante_final(12) >= -100000
 sucessor(0): + x(0,1) + x(0,2) + x(0,3) + x(0,4) + x(0,5) + x(0,6)
 + x(0,7) + x(0,8) + x(0,9) + x(0,10) + x(0,11) + x(0,12) = 1
 sucessor(1): + x(1,2) + x(1,3) + x(1,4) + x(1,5) + x(1,6) + x(1,7)
 + x(1,8) + x(1,9) + x(1,10) + x(1,11) + x(1,12) + x(1,0) = 1
 sucessor(2): + x(2,1) + x(2,3) + x(2,4) + x(2,5) + x(2,6) + x(2,7)
 + x(2,8) + x(2,9) + x(2,10) + x(2,11) + x(2,12) + x(2,0) = 1
 sucessor(3): + x(3,1) + x(3,2) + x(3,4) + x(3,5) + x(3,6) + x(3,7)
 + x(3,8) + x(3,9) + x(3,10) + x(3,11) + x(3,12) + x(3,0) = 1
 sucessor(4): + x(4,1) + x(4,2) + x(4,3) + x(4,5) + x(4,6) + x(4,7)
 + x(4,8) + x(4,9) + x(4,10) + x(4,11) + x(4,12) + x(4,0) = 1
 sucessor(5): + x(5,1) + x(5,2) + x(5,3) + x(5,4) + x(5,6) + x(5,7)
 + x(5,8) + x(5,9) + x(5,10) + x(5,11) + x(5,12) + x(5,0) = 1
 sucessor(6): + x(6,1) + x(6,2) + x(6,3) + x(6,4) + x(6,5) + x(6,7)
 + x(6,8) + x(6,9) + x(6,10) + x(6,11) + x(6,12) + x(6,0) = 1
 sucessor(7): + x(7,1) + x(7,2) + x(7,3) + x(7,4) + x(7,5) + x(7,6)
 + x(7,8) + x(7,9) + x(7,10) + x(7,11) + x(7,12) + x(7,0) = 1
 sucessor(8): + x(8,1) + x(8,2) + x(8,3) + x(8,4) + x(8,5) + x(8,6)
 + x(8,7) + x(8,9) + x(8,10) + x(8,11) + x(8,12) + x(8,0) = 1
 sucessor(9): + x(9,1) + x(9,2) + x(9,3) + x(9,4) + x(9,5) + x(9,6)
 + x(9,7) + x(9,8) + x(9,10) + x(9,11) + x(9,12) + x(9,0) = 1
 sucessor(10): + x(10,1) + x(10,2) + x(10,3) + x(10,4) + x(10,5)
 + x(10,6) + x(10,7) + x(10,8) + x(10,9) + x(10,11) + x(10,12) + x(10,0)
 = 1
 sucessor(11): + x(11,1) + x(11,2) + x(11,3) + x(11,4) + x(11,5)
 + x(11,6) + x(11,7) + x(11,8) + x(11,9) + x(11,10) + x(11,12) + x(11,0)
 = 1
 sucessor(12): + x(12,1) + x(12,2) + x(12,3) + x(12,4) + x(12,5)
 + x(12,6) + x(12,7) + x(12,8) + x(12,9) + x(12,10) + x(12,11) + x(12,0)
 = 1
 antecessor(0): + x(1,0) + x(2,0) + x(3,0) + x(4,0) + x(5,0) + x(6,0)
 + x(7,0) + x(8,0) + x(9,0) + x(10,0) + x(11,0) + x(12,0) = 1
 antecessor(1): + x(0,1) + x(2,1) + x(3,1) + x(4,1) + x(5,1) + x(6,1)
 + x(7,1) + x(8,1) + x(9,1) + x(10,1) + x(11,1) + x(12,1) = 1
 antecessor(2): + x(0,2) + x(1,2) + x(3,2) + x(4,2) + x(5,2) + x(6,2)
 + x(7,2) + x(8,2) + x(9,2) + x(10,2) + x(11,2) + x(12,2) = 1
 antecessor(3): + x(0,3) + x(1,3) + x(2,3) + x(4,3) + x(5,3) + x(6,3)
 + x(7,3) + x(8,3) + x(9,3) + x(10,3) + x(11,3) + x(12,3) = 1
 antecessor(4): + x(0,4) + x(1,4) + x(2,4) + x(3,4) + x(5,4) + x(6,4)
 + x(7,4) + x(8,4) + x(9,4) + x(10,4) + x(11,4) + x(12,4) = 1
 antecessor(5): + x(0,5) + x(1,5) + x(2,5) + x(3,5) + x(4,5) + x(6,5)
 + x(7,5) + x(8,5) + x(9,5) + x(10,5) + x(11,5) + x(12,5) = 1
 antecessor(6): + x(0,6) + x(1,6) + x(2,6) + x(3,6) + x(4,6) + x(5,6)
 + x(7,6) + x(8,6) + x(9,6) + x(10,6) + x(11,6) + x(12,6) = 1
 antecessor(7): + x(0,7) + x(1,7) + x(2,7) + x(3,7) + x(4,7) + x(5,7)
 + x(6,7) + x(8,7) + x(9,7) + x(10,7) + x(11,7) + x(12,7) = 1
 antecessor(8): + x(0,8) + x(1,8) + x(2,8) + x(3,8) + x(4,8) + x(5,8)
 + x(6,8) + x(7,8) + x(9,8) + x(10,8) + x(11,8) + x(12,8) = 1
 antecessor(9): + x(0,9) + x(1,9) + x(2,9) + x(3,9) + x(4,9) + x(5,9)
 + x(6,9) + x(7,9) + x(8,9) + x(10,9) + x(11,9) + x(12,9) = 1
 antecessor(10): + x(0,10) + x(1,10) + x(2,10) + x(3,10) + x(4,10)
 + x(5,10) + x(6,10) + x(7,10) + x(8,10) + x(9,10) + x(11,10) + x(12,10)
 = 1
 antecessor(11): + x(0,11) + x(1,11) + x(2,11) + x(3,11) + x(4,11)
 + x(5,11) + x(6,11) + x(7,11) + x(8,11) + x(9,11) + x(10,11) + x(12,11)
 = 1
 antecessor(12): + x(0,12) + x(1,12) + x(2,12) + x(3,12) + x(4,12)
 + x(5,12) + x(6,12) + x(7,12) + x(8,12) + x(9,12) + x(10,12) + x(11,12)
 = 1
 def_instante_max(0): - instante_final(0) + instante_max >= -0
 def_instante_max(1): - instante_final(1) + instante_max >= -0
 def_instante_max(2): - instante_final(2) + instante_max >= -0
 def_instante_max(3): - instante_final(3) + instante_max >= -0
 def_instante_max(4): - instante_final(4) + instante_max >= -0
 def_instante_max(5): - instante_final(5) + instante_max >= -0
 def_instante_max(6): - instante_final(6) + instante_max >= -0
 def_instante_max(7): - instante_final(7) + instante_max >= -0
 def_instante_max(8): - instante_final(8) + instante_max >= -0
 def_instante_max(9): - instante_final(9) + instante_max >= -0
 def_instante_max(10): - instante_final(10) + instante_max >= -0
 def_instante_max(11): - instante_final(11) + instante_max >= -0
 def_instante_max(12): - instante_final(12) + instante_max >= -0
 c0: + instante_final(0) = -0
 agrupe(1): + x(2,1) + x(3,1) + x(1,2) + x(3,2) + x(1,3) + x(2,3) >= 2
 agrupe(2): + x(5,4) + x(6,4) + x(7,4) + x(10,4) + x(4,5) + x(6,5)
 + x(7,5) + x(10,5) + x(4,6) + x(5,6) + x(7,6) + x(10,6) + x(4,7)
 + x(5,7) + x(6,7) + x(10,7) + x(4,10) + x(5,10) + x(6,10) + x(7,10)
 >= 4
 agrupe(3): + x(9,8) + x(8,9) >= 1
 agrupe(4): + x(12,11) + x(11,12) >= 1

Bounds
 0 <= x(0,1) <= 1
 0 <= x(2,1) <= 1
 0 <= x(3,1) <= 1
 0 <= x(4,1) <= 1
 0 <= x(5,1) <= 1
 0 <= x(6,1) <= 1
 0 <= x(7,1) <= 1
 0 <= x(8,1) <= 1
 0 <= x(9,1) <= 1
 0 <= x(10,1) <= 1
 0 <= x(11,1) <= 1
 0 <= x(12,1) <= 1
 0 <= x(0,2) <= 1
 0 <= x(1,2) <= 1
 0 <= x(3,2) <= 1
 0 <= x(4,2) <= 1
 0 <= x(5,2) <= 1
 0 <= x(6,2) <= 1
 0 <= x(7,2) <= 1
 0 <= x(8,2) <= 1
 0 <= x(9,2) <= 1
 0 <= x(10,2) <= 1
 0 <= x(11,2) <= 1
 0 <= x(12,2) <= 1
 0 <= x(0,3) <= 1
 0 <= x(1,3) <= 1
 0 <= x(2,3) <= 1
 0 <= x(4,3) <= 1
 0 <= x(5,3) <= 1
 0 <= x(6,3) <= 1
 0 <= x(7,3) <= 1
 0 <= x(8,3) <= 1
 0 <= x(9,3) <= 1
 0 <= x(10,3) <= 1
 0 <= x(11,3) <= 1
 0 <= x(12,3) <= 1
 0 <= x(0,4) <= 1
 0 <= x(1,4) <= 1
 0 <= x(2,4) <= 1
 0 <= x(3,4) <= 1
 0 <= x(5,4) <= 1
 0 <= x(6,4) <= 1
 0 <= x(7,4) <= 1
 0 <= x(8,4) <= 1
 0 <= x(9,4) <= 1
 0 <= x(10,4) <= 1
 0 <= x(11,4) <= 1
 0 <= x(12,4) <= 1
 0 <= x(0,5) <= 1
 0 <= x(1,5) <= 1
 0 <= x(2,5) <= 1
 0 <= x(3,5) <= 1
 0 <= x(4,5) <= 1
 0 <= x(6,5) <= 1
 0 <= x(7,5) <= 1
 0 <= x(8,5) <= 1
 0 <= x(9,5) <= 1
 0 <= x(10,5) <= 1
 0 <= x(11,5) <= 1
 0 <= x(12,5) <= 1
 0 <= x(0,6) <= 1
 0 <= x(1,6) <= 1
 0 <= x(2,6) <= 1
 0 <= x(3,6) <= 1
 0 <= x(4,6) <= 1
 0 <= x(5,6) <= 1
 0 <= x(7,6) <= 1
 0 <= x(8,6) <= 1
 0 <= x(9,6) <= 1
 0 <= x(10,6) <= 1
 0 <= x(11,6) <= 1
 0 <= x(12,6) <= 1
 0 <= x(0,7) <= 1
 0 <= x(1,7) <= 1
 0 <= x(2,7) <= 1
 0 <= x(3,7) <= 1
 0 <= x(4,7) <= 1
 0 <= x(5,7) <= 1
 0 <= x(6,7) <= 1
 0 <= x(8,7) <= 1
 0 <= x(9,7) <= 1
 0 <= x(10,7) <= 1
 0 <= x(11,7) <= 1
 0 <= x(12,7) <= 1
 0 <= x(0,8) <= 1
 0 <= x(1,8) <= 1
 0 <= x(2,8) <= 1
 0 <= x(3,8) <= 1
 0 <= x(4,8) <= 1
 0 <= x(5,8) <= 1
 0 <= x(6,8) <= 1
 0 <= x(7,8) <= 1
 0 <= x(9,8) <= 1
 0 <= x(10,8) <= 1
 0 <= x(11,8) <= 1
 0 <= x(12,8) <= 1
 0 <= x(0,9) <= 1
 0 <= x(1,9) <= 1
 0 <= x(2,9) <= 1
 0 <= x(3,9) <= 1
 0 <= x(4,9) <= 1
 0 <= x(5,9) <= 1
 0 <= x(6,9) <= 1
 0 <= x(7,9) <= 1
 0 <= x(8,9) <= 1
 0 <= x(10,9) <= 1
 0 <= x(11,9) <= 1
 0 <= x(12,9) <= 1
 0 <= x(0,10) <= 1
 0 <= x(1,10) <= 1
 0 <= x(2,10) <= 1
 0 <= x(3,10) <= 1
 0 <= x(4,10) <= 1
 0 <= x(5,10) <= 1
 0 <= x(6,10) <= 1
 0 <= x(7,10) <= 1
 0 <= x(8,10) <= 1
 0 <= x(9,10) <= 1
 0 <= x(11,10) <= 1
 0 <= x(12,10) <= 1
 0 <= x(0,11) <= 1
 0 <= x(1,11) <= 1
 0 <= x(2,11) <= 1
 0 <= x(3,11) <= 1
 0 <= x(4,11) <= 1
 0 <= x(5,11) <= 1
 0 <= x(6,11) <= 1
 0 <= x(7,11) <= 1
 0 <= x(8,11) <= 1
 0 <= x(9,11) <= 1
 0 <= x(10,11) <= 1
 0 <= x(12,11) <= 1
 0 <= x(0,12) <= 1
 0 <= x(1,12) <= 1
 0 <= x(2,12) <= 1
 0 <= x(3,12) <= 1
 0 <= x(4,12) <= 1
 0 <= x(5,12) <= 1
 0 <= x(6,12) <= 1
 0 <= x(7,12) <= 1
 0 <= x(8,12) <= 1
 0 <= x(9,12) <= 1
 0 <= x(10,12) <= 1
 0 <= x(11,12) <= 1
 0 <= x(1,0) <= 1
 0 <= x(2,0) <= 1
 0 <= x(3,0) <= 1
 0 <= x(4,0) <= 1
 0 <= x(5,0) <= 1
 0 <= x(6,0) <= 1
 0 <= x(7,0) <= 1
 0 <= x(8,0) <= 1
 0 <= x(9,0) <= 1
 0 <= x(10,0) <= 1
 0 <= x(11,0) <= 1
 0 <= x(12,0) <= 1

Generals
 x(0,1)
 x(2,1)
 x(3,1)
 x(4,1)
 x(5,1)
 x(6,1)
 x(7,1)
 x(8,1)
 x(9,1)
 x(10,1)
 x(11,1)
 x(12,1)
 x(0,2)
 x(1,2)
 x(3,2)
 x(4,2)
 x(5,2)
 x(6,2)
 x(7,2)
 x(8,2)
 x(9,2)
 x(10,2)
 x(11,2)
 x(12,2)
 x(0,3)
 x(1,3)
 x(2,3)
 x(4,3)
 x(5,3)
 x(6,3)
 x(7,3)
 x(8,3)
 x(9,3)
 x(10,3)
 x(11,3)
 x(12,3)
 x(0,4)
 x(1,4)
 x(2,4)
 x(3,4)
 x(5,4)
 x(6,4)
 x(7,4)
 x(8,4)
 x(9,4)
 x(10,4)
 x(11,4)
 x(12,4)
 x(0,5)
 x(1,5)
 x(2,5)
 x(3,5)
 x(4,5)
 x(6,5)
 x(7,5)
 x(8,5)
 x(9,5)
 x(10,5)
 x(11,5)
 x(12,5)
 x(0,6)
 x(1,6)
 x(2,6)
 x(3,6)
 x(4,6)
 x(5,6)
 x(7,6)
 x(8,6)
 x(9,6)
 x(10,6)
 x(11,6)
 x(12,6)
 x(0,7)
 x(1,7)
 x(2,7)
 x(3,7)
 x(4,7)
 x(5,7)
 x(6,7)
 x(8,7)
 x(9,7)
 x(10,7)
 x(11,7)
 x(12,7)
 x(0,8)
 x(1,8)
 x(2,8)
 x(3,8)
 x(4,8)
 x(5,8)
 x(6,8)
 x(7,8)
 x(9,8)
 x(10,8)
 x(11,8)
 x(12,8)
 x(0,9)
 x(1,9)
 x(2,9)
 x(3,9)
 x(4,9)
 x(5,9)
 x(6,9)
 x(7,9)
 x(8,9)
 x(10,9)
 x(11,9)
 x(12,9)
 x(0,10)
 x(1,10)
 x(2,10)
 x(3,10)
 x(4,10)
 x(5,10)
 x(6,10)
 x(7,10)
 x(8,10)
 x(9,10)
 x(11,10)
 x(12,10)
 x(0,11)
 x(1,11)
 x(2,11)
 x(3,11)
 x(4,11)
 x(5,11)
 x(6,11)
 x(7,11)
 x(8,11)
 x(9,11)
 x(10,11)
 x(12,11)
 x(0,12)
 x(1,12)
 x(2,12)
 x(3,12)
 x(4,12)
 x(5,12)
 x(6,12)
 x(7,12)
 x(8,12)
 x(9,12)
 x(10,12)
 x(11,12)
 x(1,0)
 x(2,0)
 x(3,0)
 x(4,0)
 x(5,0)
 x(6,0)
 x(7,0)
 x(8,0)
 x(9,0)
 x(10,0)
 x(11,0)
 x(12,0)

End
